##TITLE=ortho-methyl furanyl fentanyl HCl (Lot #0621678-1)
##JCAMP-DX=5.01  $$ Nicolet v. 1
##DATATYPE=INFRARED SPECTRUM
##ORIGIN=SWGDRUG 15 May 2024
##OWNER=SWGDRUG
##LONGDATE=2021/09/15
##TIME=18:04:03
##SPECTROMETER/DATA SYSTEM=Nicolet iS10
##DATA PROCESSING=
Retrieved from a Library
Subtraction or Addition
Multiplied by a scalar
##COMMENTS=
Number of sample scans: 32
Collection length: 47.68 sec
Sample gain: 0.0
Number of background scans: 32
Background gain: 4.0
Sample spacing:  0.000
Number of scan points: 16672
Resolution points: 8192
Number of FFT points: 65536
Apodization: N-B strong;
Phase correction: Mertz;
Laser frequency: 15798.67 cm-1
Number of rejected sample scans: -1
Number of rejected background scans: -1
##XUNITS=1/CM
##YUNITS=ABSORBANCE
##FIRSTX=649.920715
##LASTX=3999.808838
##FIRSTY=0.241249
##MAXX=3999.808838
##MINX=649.920715
##MAXY=1.000000
##MINY=0.000000
##XFACTOR=1.000000
##YFACTOR=1.000000E-09
##NPOINTS=1738
##DELTAX=1.928548
##ZPD=8192
##XYDATA=(X++(Y..Y))
649.921 241248816 253637456 267802320 284356928 297650848 302204352 
661.492 294852192 278778880 267540000 252334096 229885920 238106336 
673.063 247873072 252487696 255429632 263249584 279303392 309024480 
684.634 357279744 425631680 497055040 545455168 569210112 594387008 
696.205 642512320 692841024 717547648 711600768 673585600 597061440 
707.777 492181632 391759904 322338016 291207968 293948928 324012192 
719.348 375202176 450321568 554615936 683224512 796940160 846824384 
730.919 836336576 805303424 772764160 744566784 716826944 690287488 
742.490 684255168 713342144 771786368 842052160 906016512 962970112 
754.061 1000000000 970562752 868113920 753395968 665183296 604626368 
765.632 567338240 546077952 519493344 474776480 423195008 382155360 
777.204 354210048 333680576 311871680 284785344 255059296 230369760 
788.775 215679968 208851760 202459632 193699840 179659216 160110448 
800.346 137727104 117918960 103694480 95143624 88862304 84603016 82183432 
813.846 81692800 83169048 88341296 95482256 103416272 111567400 120262136 
827.345 127086144 131113424 132554832 132935776 132346704 130507824 
838.916 127317208 125446248 126865688 132800832 140170784 143354112 
850.488 136510432 123380432 111516592 105124440 102368936 102000200 
862.059 102818416 104489984 106480264 109748032 114442616 120989160 
873.630 127467376 132891816 140748208 161113280 201768608 257048672 
885.201 297199936 288934016 251400176 231035808 223887040 216586224 
896.772 209090464 198744336 181061392 162262192 149680608 144974128 
908.343 144776832 147463648 152236960 159875760 170799632 187248928 
919.915 209744464 234134016 245595424 234945216 209389168 184128336 
931.486 170386352 174429040 197406224 240597968 298248192 351177952 
943.057 374832512 366143072 342982720 324176032 318244640 323778912 
954.628 329257024 324799552 303684416 269916224 237337488 218727536 
966.199 216545296 223819600 229317568 229146048 221381632 205020256 
977.770 183594768 164292960 150671072 143197216 139489840 138653984 
989.342 138929680 140496752 144171264 151768640 164219920 183766864 
1000.913 209073904 238443152 271605888 308569728 339336224 351508480 
1012.484 343973152 328943328 316287264 313420576 321926272 340354944 
1024.055 366005536 397223520 427240352 446756096 445963904 426185568 
1035.627 396556960 364480512 331091648 297000480 268452640 254534688 
1047.198 252900384 253463840 246288416 229382944 206840880 186366400 
1058.770 172013632 164663888 162271968 162569568 163145712 164457008 
1070.341 167264576 174024768 184014320 196236480 210546304 228896512 
1081.913 249483440 265271776 266506992 253879840 233799408 210480144 
1093.484 184478288 160464592 143775024 136308208 135061136 138666560 
1105.056 146707360 160086272 178921808 205690784 239348096 275163328 
1116.627 305029248 324034176 323915488 300226816 262230272 230527408 
1128.199 221661648 237160768 259526752 265892208 245330208 209711792 
1139.771 181337200 176055952 192090976 219417456 245096416 257857328 
1151.342 252536976 239118208 228565056 223105408 219524400 217501088 
1162.914 215637408 209953488 197669744 183723648 174747920 175458688 
1174.485 187387776 213884096 257171664 320302592 399777792 477417568 
1186.057 519535168 506152288 448705056 375908544 310241312 260542000 
1197.628 223340144 193834688 168872816 148981568 135345760 128462640 
1209.200 126135008 127004984 129457488 134067056 140958768 151341888 
1220.771 165367056 182626192 199595344 217503120 242463072 274455616 
1232.343 297385056 296901856 279941664 269061952 270844960 274213152 
1243.914 266600640 251073360 238870192 236057888 239685088 244630240 
1255.486 244384416 235066816 215991504 195014160 181392080 178088384 
1267.057 183101408 192320816 200171136 207264544 217993904 236297280 
1278.629 260994560 286805792 307916608 322951584 331596352 335885120 
1290.200 340393440 349907968 365237984 382259232 395594080 406774880 
1301.772 419509472 438787200 466752864 503611392 544000768 574507648 
1313.344 579461248 568537088 549030656 520903040 491683744 465205184 
1324.915 442736896 433477920 441468416 468042784 508319840 555365888 
1336.487 596207232 617031168 613703296 605911104 582067520 541776128 
1348.058 495188096 455677408 436593024 438313248 453039424 475293184 
1359.630 492814912 489470336 463039392 447183296 424423712 395001184 
1371.201 379278080 368389472 367110176 398959392 444046880 492488224 
1382.773 533960288 566281984 574464064 579330112 603639872 630732096 
1394.344 634075136 628051968 612642368 577739328 552553088 501546016 
1405.916 433418464 388199936 347752160 311284224 288885728 278643008 
1417.487 265509520 242093584 247987536 257211440 264841552 284767776 
1429.059 298995360 312529536 331540256 346601984 335535392 347880352 
1440.630 370802848 390713600 410622432 425531968 432084672 457781376 
1452.202 495572768 540082944 548653440 509508256 536613280 590039936 
1463.773 643486208 694908032 737688192 759390016 721379456 619011648 
1475.345 552036416 481360288 433462784 379905216 342229664 328376096 
1486.917 326653280 331878848 343033088 365370176 369321056 323548416 
1498.488 265190368 219271888 189455520 175771120 128776688 75702584 81033904 
1511.988 82527136 87141288 83179752 76025944 82221432 65227480 67085132 
1525.488 69592000 66811772 73940784 85028720 75151448 78746576 101108056 
1538.988 104335448 79645528 87438240 94555832 114742424 134346640 156691136 
1552.489 196831008 252880272 314056576 304239168 252603648 265171264 
1564.060 246380160 223444096 217557472 197231360 208187456 231869728 
1575.632 232694080 235789312 253204432 254847552 245866208 236699168 
1587.203 235417840 243885120 263960368 294653440 333471904 377741888 
1598.775 412604480 419244224 396154688 371668160 362708672 370468096 
1610.346 396669824 440672416 492908512 532182944 578094144 643455872 
1621.918 693985920 728499968 770854464 791485056 801722240 822924032 
1633.489 834418304 766593536 708353856 697033088 664913152 633361152 
1645.061 584596416 449410176 393292928 390676800 275466304 179475952 
1656.632 172823744 154419808 134620032 100300392 81248152 82237272 72383984 
1670.132 48180080 48432772 46706408 33745132 37774488 41625036 47779352 
1683.633 30155048 14939655 25386666 24410846 28332376 38736192 34271516 
1697.133 29655526 30873114 13648085 26692072 25884816 20668470 24350422 
1710.633 28711422 34255668 36572596 26303682 11102459 19598472 26416080 
1724.133 24871728 28631524 32433640 34115672 38639244 20943034 18548692 
1737.633 32064986 27768968 28038328 28652828 32000520 33061206 28273982 
1751.133 20193588 25716658 32266446 27838122 31163672 30734172 23560810 
1764.633 30410284 33996068 34262084 35782396 22143558 21393822 27442366 
1778.133 31412036 29063296 28356912 29342930 27113518 32927162 37909856 
1791.634 29493374 23662934 29590826 33406228 33480462 28527956 29884380 
1805.134 32573466 34977704 34830348 31826708 31302598 34695948 33888344 
1818.634 34382500 36034556 39167224 34330924 34957924 37223176 28210230 
1832.134 29730788 34520776 34195860 33090380 36166572 41191416 31790656 
1845.634 27144158 30293622 31749550 33042412 33623952 34163288 34704904 
1859.134 34624068 34969872 36134452 40529284 40838920 31172322 29527010 
1872.634 34992560 36240416 37219864 37668820 38492400 38610092 38901640 
1886.134 40670700 40736724 35360788 38827320 40067448 38492312 39049316 
1899.635 40906940 41409568 42095392 42531876 43740508 41667664 42207368 
1913.135 43963076 47671860 45610200 43016704 45393208 42657524 41821396 
1926.635 44495856 44832044 45806860 45712144 46312416 46593892 49329100 
1940.135 51085904 47544248 44953792 48081548 48501312 50970344 51677792 
1953.635 52842892 50804268 51859128 52057584 53003248 53255880 54959324 
1967.135 50507948 50224124 50946168 53938432 53575812 55011316 56069804 
1980.635 58260628 56267304 54431824 51948100 53863084 53916784 51014412 
1994.135 50332384 53695024 51918408 50953060 50337268 51894216 50696984 
2007.635 51747948 50853896 52258620 51836380 53326864 50150832 49279596 
2021.136 50559304 52753940 51158860 53196636 53639332 53981584 51561868 
2034.636 53813632 54100268 54946896 53326596 53244604 53068100 54836152 
2048.136 55188664 55137144 53781868 55645812 56594272 57605784 57360460 
2061.635 58752504 59195184 59818204 60622076 61856036 62173320 63300052 
2075.134 63675440 64580068 64560152 65638588 65952228 66504920 66208860 
2088.634 66983312 66330636 66771580 67416592 69065648 69843200 70627840 
2102.133 70320312 70543024 70748928 72151936 72527760 73667240 74003664 
2115.632 74422880 74552528 75176832 75078352 76027624 76468936 76563160 
2129.131 75695944 76083008 75225056 75181520 75011336 76333096 76670680 
2142.631 78653000 78390072 79007160 79402248 80433080 79545448 80415056 
2156.130 79277856 83334512 88214480 91633488 91448840 90396464 88916808 
2169.629 90639248 90733432 93827960 95823768 96847376 95543448 95575696 
2183.128 96085448 98250136 98354968 99835784 101926456 105285792 106747120 
2196.628 107793000 107315120 108660624 109164912 110044632 109855776 
2208.198 111428008 112792808 115092104 116568760 118251840 118502264 
2219.769 119872424 121191176 123815808 125096944 125651736 126027632 
2231.340 128151504 129028784 129945128 130245296 132071328 133729312 
2242.911 134684176 135401216 137333808 138779424 141125600 142596544 
2254.482 144100720 145175920 147205920 149040736 150402160 150885440 
2266.052 152048400 153072080 154450592 155544704 156987536 157845872 
2277.623 158988128 159876304 161197680 162482000 163977680 165001968 
2289.194 166411056 167821200 169543264 170773648 172549008 174587088 
2300.765 176922672 179203104 181867200 184101392 186513152 188636304 
2312.336 190561040 192471408 195677184 198193760 199388448 200058032 
2323.906 201754240 204252608 206130512 205951936 206575456 209035392 
2335.477 211700096 213650592 215292976 215720624 214192048 210088528 
2347.048 217675664 234224624 242874768 242417216 241496128 240680080 
2358.619 239991984 239067968 238994144 238627472 239575616 240728320 
2370.190 242580400 244668464 247034784 249317440 252239136 255287344 
2381.760 258618480 261392416 263830400 265493632 266803952 267645920 
2393.331 268723456 269642368 270083072 269671936 269233504 268330192 
2404.902 267227440 265706032 264285648 262715040 261400816 259804512 
2416.473 258348704 257296736 256601808 255861792 255398624 254686080 
2428.044 254520928 254821008 255948208 257528688 260319088 263767536 
2439.615 267468304 270614720 273571648 275782464 277583488 278824320 
2451.185 279981824 280101408 279691776 278897760 277851136 275989632 
2462.756 274153280 272302016 270391040 268289632 266217440 263984896 
2474.327 262123376 259986048 257734960 255305264 253083760 251181072 
2485.898 249821904 248214096 246587584 244751120 243289824 242094016 
2497.469 241670320 241271280 241205152 241387712 241882800 242042528 
2509.039 241698832 240649568 239395104 237494896 235539056 233461808 
2520.610 231417472 228988816 226390608 223335056 220239632 216906256 
2532.181 213366144 209527424 205652576 201342544 196969360 192376896 
2543.752 188201456 184392784 181142336 178087648 175654656 173158464 
2555.323 170673792 167775408 164287920 160017904 156005968 152452960 
2566.893 149460480 146994512 145771408 145425360 145588640 146265872 
2578.464 147404880 148349952 149184928 149308704 148881312 147922544 
2590.035 146689296 145366400 144631488 144035152 143426528 142849504 
2601.606 142456640 141816000 141044784 139970032 138858112 137872496 
2613.177 137436944 137294912 137630208 138443952 139903216 141568688 
2624.747 143251152 144680832 145974048 146595584 146517472 145671856 
2636.318 144246288 142149776 139689872 137225728 134846704 132308152 
2647.889 130004080 128013504 126456128 125071656 123917544 122741352 
2659.460 121539760 120258040 118797576 117212376 115766000 114225944 
2671.031 112743216 111353352 110178872 108854896 107630384 106699024 
2682.601 106000672 105382968 104965008 104490272 103866424 103064584 
2694.172 102230512 101101704 99856768 98514024 97150280 95791312 94480464 
2707.671 93321008 92429216 91444496 90474512 89298544 88041784 86770304 
2721.171 85488912 84195840 83116520 82035088 81031960 80184760 79482360 
2734.670 78711120 78052936 77437248 76674928 75812160 75129744 74373000 
2748.169 73558968 72579024 71620480 70781416 70048888 69309992 68748760 
2761.668 68146392 67538632 66963436 66559284 65909892 65262496 64647748 
2775.168 64038584 63428364 62930652 62430604 61885044 61350236 61058172 
2788.667 60584012 59886232 59413140 59146112 58787124 58535068 58300696 
2802.166 58104820 57886968 57904324 58118744 58274936 58305240 58429788 
2815.666 58467364 58694684 58969108 59202992 59405056 59666056 59914264 
2829.165 60368476 60962056 61843952 62799088 63825532 65002596 66332600 
2842.664 67766472 69757704 72147552 74646392 77077600 79562024 81785720 
2856.163 83768416 85435936 86787112 87658760 88257760 88737760 89099968 
2869.663 89100960 89090080 89260784 89644552 90006552 90567392 91494184 
2883.162 92795696 94364160 96045088 97744120 99470472 100990688 102292856 
2896.661 103445800 104834744 106482600 108370488 110439928 112831352 
2908.232 115542456 118731512 122090704 125512656 128845600 132096680 
2919.803 135294912 138646848 141985008 145240224 148217136 150825232 
2931.374 152495392 153278688 153512032 153204256 152258368 150879568 
2942.944 149219360 147507328 145631504 143854240 142349616 140675024 
2954.515 138473568 135825088 132476136 128763928 124972832 121151952 
2966.086 117212272 114028896 111843240 110230128 108944336 107935408 
2977.657 106509280 104760472 102939192 101115056 98973352 96517920 94371144 
2991.156 92731200 91014056 89903552 89734696 89914032 89958152 89528376 
3004.655 88582776 87824200 86974192 85677344 84547160 84663072 85803888 
3018.155 88080584 91132704 94545032 97921304 100584288 102113304 101135696 
3031.654 98013160 95226504 92717392 90992104 89518616 88144720 87096264 
3045.153 87045464 87190808 87358400 88458864 90143848 90864240 91223616 
3058.652 92216816 93177160 93133208 91515256 89321472 87489280 85855776 
3072.152 84237712 83179904 82698640 81947880 81234896 81122632 81267592 
3085.651 80848944 79884760 78625688 77172160 75290536 73198080 72769136 
3099.150 72890072 72581408 73224048 74245984 74643664 74783336 74845424 
3112.649 74476184 73331520 71532176 69820632 68150024 66399864 65590800 
3126.149 65267688 65626264 66769680 67118328 67771272 68896904 69391088 
3139.648 69287072 68492448 67043984 65667144 64122684 62516332 60949284 
3153.147 59602432 58454108 57329124 56150512 55245364 54663960 54313520 
3166.646 53952360 53635780 53411672 53523556 53835316 53888304 53654324 
3180.146 54187796 54589508 54460616 54470064 54932608 55453776 56123380 
3193.645 56526536 56494568 55998508 56165412 56846868 57464728 57759756 
3207.144 57966312 57767676 58235012 58318824 58333204 59176528 58915512 
3220.644 58605788 59421796 60299756 60460296 60438304 60769912 61045760 
3234.143 61447652 61664996 61849760 62370548 63112056 62675096 62297236 
3247.642 62779480 63474388 64247824 64127504 64251468 64716324 64872296 
3261.141 65000376 65224520 65180516 65517232 66007212 66297532 66109500 
3274.641 65545408 65239260 65637848 66092708 66120164 66561164 67294032 
3288.140 67492608 67352888 67174984 67655096 67968632 68208320 69005608 
3301.639 69606680 70141904 71147176 71422752 71196768 71691328 72016528 
3315.138 72526048 73270912 74260480 75149304 75553504 75765672 76087216 
3328.638 76615136 77676784 78855616 79181496 78911288 79539616 80599584 
3342.137 81464000 82168096 82759976 83277432 83899248 84693736 85188728 
3355.636 85143272 85853072 86617992 87169648 87750960 87753488 87993184 
3369.135 88835640 89680968 90074560 90328368 90796392 91395056 92183776 
3382.635 92543568 92196744 92661064 94018304 94155248 92780808 93330440 
3396.134 93547896 93231552 93790408 93886504 93960552 94332304 94583528 
3409.633 94568168 94361816 94076768 94610752 95567992 94087720 91781768 
3423.133 92215416 93337064 93452480 93226880 92577968 92120696 92008432 
3436.632 91921680 92280168 92123296 92049040 92896096 88708336 86654040 
3450.131 88832360 89340544 89067528 88773728 89166768 88790808 87105248 
3463.630 87016368 86807192 85692976 85804256 86159456 85404272 84537816 
3477.130 86492360 87044392 83428088 82214240 84249440 82993488 81703096 
3490.629 82663840 83653056 82473448 81141856 83691704 84597312 78460280 
3504.128 76012136 80644336 79601456 75792856 76897888 77859584 77661856 
3517.627 77188656 79194768 78419960 74545208 73751312 70359680 67776616 
3531.127 69199704 71969480 69420864 66478416 69258368 73311120 73182728 
3544.626 64632580 58286500 63132712 64146548 57060440 57681008 61449600 
3558.125 62199424 61878476 67307272 70744600 50569428 34775504 44696428 
3571.625 52394336 52728664 51032544 50171468 49713492 53338628 60756456 
3585.124 57431536 34322356 35402088 48969600 48053668 41044256 42324300 
3598.623 42120360 37992032 43386136 52850688 49004580 39471900 44168776 
3612.122 41356412 40834368 49059132 36442472 24968548 36830952 53418092 
3625.622 64738764 39660316 15991213 32274664 35833092 38574312 40889576 
3639.121 41793784 44026608 54181052 67627984 54131028 15109454 10369132 
3652.620 35936468 38419708 24903288 30229886 34267416 36321840 43472624 
3666.119 54698756 45810056 24744178 44239996 36889104 2694480 13473667 
3679.619 20755584 29906324 40611456 51556420 39714896 11967866 10446947 
3693.118 22862210 28984958 33339824 37529572 26335928 23383026 35889948 
3706.617 46733368 44395328 19078602 8768152 23437038 34724020 37062212 
3720.116 36596736 31396556 28173022 23668716 35248580 50387332 48272020 
3733.616 31798322 8730278 18111504 37778268 52434920 32620982 22186898 
3747.115 44344112 31233838 4239383 12606593 32010444 33212058 21851250 
3760.614 24254260 37256032 34212760 34748320 29385496 18737982 26585934 
3774.114 35819972 40907176 32063392 24581430 32827132 30035796 27047618 
3787.613 30358744 32891172 37597620 43973084 38599496 41504700 44109976 
3801.112 16949120 25986460 32893572 16061902 24942020 39763036 51070068 
3814.611 40510036 34459268 43893532 15897714 15790503 31454690 29717438 
3828.111 36238564 40076596 39385496 45960796 42308752 24281592 18836218 
3841.610 22240610 22236822 32872032 49647192 64851924 52507244 0 6667488 
3857.038 26947056 42018480 44824032 34481872 29533496 44885600 34076400 
3870.537 22641772 26596388 24448280 41431556 45029236 30473982 36776308 
3884.036 32202080 24120088 41218300 37381336 23082654 32875832 47533516 
3897.535 48758184 39966112 33096836 19261292 17500234 28234972 34814788 
3911.035 37572280 42780048 41348300 32700412 31526708 36222640 36321128 
3924.534 30095706 35971112 40514556 34452324 27461108 30931562 35949264 
3938.033 39038140 40245512 33514452 33710232 38359944 34197004 31127098 
3951.532 33130310 35374704 35883380 36244244 36344328 34432560 34448896 
3965.032 36706884 37320236 36939752 36874816 36357704 35329860 35680112 
3978.531 36702896 36736576 36519964 36931356 37650016 37639856 36723832 
3992.030 37198456 37024068 36856740 37692732 37692732 
##END=
